(set-logic QF_LRA)
(declare-fun x1 () Real)
(declare-fun x2 () Real)
(declare-fun x3 () Real)
(declare-fun x4 () Real)
(declare-fun x5 () Real)
(declare-fun x6 () Real)
(declare-fun x7 () Real)
(declare-fun x8 () Real)
(declare-fun x9 () Real)
(declare-fun x10 () Real)

(assert (>= (- 7 ( + ( + (* 5 x1) (* 3 x2) ) (* 2 x3) )) 0))
(assert (>= (- 10 ( + ( + (* -6 x2) (* 8 x3) ) (* -8 x4) )) 0))
(assert (>= (- 7 ( + ( + (* 5 x5) (* 3 x1) ) (* -10 x3) )) 0))
(assert (>= (- -10 ( + ( + (* -1 x6) (* 9 x2) ) (* 3 x3) )) 0))
(assert (>= (- -5 ( + ( + (* 4 x7) (* -4 x2) ) (* 3 x3) )) 0))
(assert (>= (- 1 ( + ( + (* -10 x8) (* 6 x1) ) (* -3 x5) )) 0))
(assert (>= (- 7 ( + ( + (* -4 x9) (* 6 x2) ) (* 6 x4) )) 0))
(assert (>= (- -4 ( + ( + (* -8 x10) (* 5 x2) ) (* 8 x4) )) 0))
(assert (>= (- -9 (* 2 x1)) 0))
(assert (>= (- -1 ( + ( + (* 6 x2) (* 7 x3) ) (* -9 x6) )) 0))
(assert (>= (- 8 ( + (* 4 x9) (* -9 x2) )) 0))
(assert (>= (- -7 ( + ( + x4 (* -4 x2) ) (* -1 x10) )) 0))
(assert (>= (- 5 (* 6 x1)) 0))
(assert (>= (- -9 (* -5 x3)) 0))
(assert (>= (- 7 ( + (* -6 x10) x4 )) 0))
(assert (>= (- -4 ( + (* 8 x1) (* -4 x3) )) 0))
(assert (>= (- -6 ( + x3 (* 10 x2) )) 0))
(assert (>= (- 6 ( + ( + (* -9 x8) (* -5 x1) ) (* 9 x5) )) 0))
(assert (>= (- 5 ( + (* 7 x2) x3 )) 0))
(assert (>= (- -6 ( + (* -4 x2) (* 8 x7) )) 0))
(check-sat)
(exit)